NAME: burma14
TYPE: TSP
COMMENT: 14-Staedte in Burma (Zaw Win)
DIMENSION: 14
EDGE_WEIGHT_TYPE: EUC_2D
EDGE_WEIGHT_FORMAT: FUNCTION
NODE_COORD_SECTION
1 -649.229602 6074.994302
2 -472.974198 6091.251945
3 -265.163255 5977.473034
4 -346.277450 5880.519881
5 -726.316098 5717.281549
6 -622.585298 5874.187618
7 -729.470171 5923.961837
8 -666.795809 6049.440816
9 -785.457927 6064.263889
10 -872.962710 6118.444493
11 -784.529591 6057.096506
12 -577.332133 5898.689153
13 -745.831201 5962.435782
14 -474.653534 5964.494903
EOF



